c Nemesis formula in 6CNF in accordance with DIMACS CNF format:
c    Filename: MCNC/c432/c432.tdl
c    Formula number 48
c    1267 variables (range: 2 - 1268)
c    1037 clauses
c
c p cnf 1268 1037
p cnf 428 1037
160	0
38	0
428	0
160	0
161	0
-159	0
153	-155	0
-153	155	0
159	161	0
-159	-161	0
-423	-158	0
-424	-178	0
153	159	0
-153	-159	0
423	-155	0
-423	155	0
423	-161	0
-423	161	0
155	-161	0
-155	161	0
-39	-426	0
37	-426	0
39	-427	0
-37	-427	0
-427	425	0
-426	425	0
-79	-37	0
-67	-37	0
-68	38	0
-68	-79	0
-79	-39	0
-69	-39	0
-76	-67	0
-71	-67	0
-74	-67	0
-138	-67	0
-72	68	0
-72	-138	0
-72	-74	0
-72	-76	0
-76	-69	0
-73	-69	0
-74	-69	0
-138	-69	0
75	-138	0
-75	138	0
75	-139	0
-75	139	0
75	-147	0
-75	147	0
-304	-75	0
-300	-75	0
305	300	0
-305	-300	0
15	-308	0
-15	308	0
15	-309	0
-15	309	0
53	-93	0
-53	93	0
53	-94	0
-53	94	0
53	-98	0
-53	98	0
53	-102	0
-53	102	0
53	-105	0
-53	105	0
53	-119	0
-53	119	0
53	-121	0
-53	121	0
53	-124	0
-53	124	0
53	-129	0
-53	129	0
53	-166	0
-53	166	0
53	-200	0
-53	200	0
53	-214	0
-53	214	0
53	-237	0
-53	237	0
53	-243	0
-53	243	0
53	-297	0
-53	297	0
53	-307	0
-53	307	0
53	-321	0
-53	321	0
53	-334	0
-53	334	0
53	-336	0
-53	336	0
53	-351	0
-53	351	0
53	-369	0
-53	369	0
60	53	0
256	53	0
169	53	0
175	53	0
181	175	0
-181	-175	0
104	-180	0
-104	180	0
104	-181	0
-104	181	0
-189	-104	0
-184	-104	0
-186	-104	0
177	-185	0
-177	185	0
177	-186	0
-177	186	0
177	-193	0
-177	193	0
177	-196	0
-177	196	0
34	177	0
-34	-177	0
12	-183	0
-12	183	0
12	-184	0
-12	184	0
182	-189	0
-182	189	0
182	-190	0
-182	190	0
-264	-413	0
188	-413	0
264	-414	0
-188	-414	0
-414	182	0
-413	182	0
42	-80	0
-42	80	0
42	-81	0
-42	81	0
42	-84	0
-42	84	0
42	-101	0
-42	101	0
42	-112	0
-42	112	0
42	-165	0
-42	165	0
42	-188	0
-42	188	0
42	-211	0
-42	211	0
42	-234	0
-42	234	0
42	-252	0
-42	252	0
42	-284	0
-42	284	0
42	-296	0
-42	296	0
42	-306	0
-42	306	0
42	-314	0
-42	314	0
42	-335	0
-42	335	0
42	-340	0
-42	340	0
42	-348	0
-42	348	0
42	-376	0
-42	376	0
42	-395	0
-42	395	0
279	42	0
260	42	0
43	42	0
271	42	0
338	271	0
-338	-271	0
272	-338	0
-272	338	0
272	-339	0
-272	339	0
-360	-272	0
-361	-272	0
274	-277	0
-274	277	0
274	-278	0
-274	278	0
274	-294	0
-274	294	0
274	-361	0
-274	361	0
26	274	0
-26	-274	0
7	-359	0
-7	359	0
7	-360	0
-7	360	0
-110	-43	0
-46	-43	0
41	-45	0
-41	45	0
41	-46	0
-41	46	0
-212	-41	0
-204	-41	0
197	-204	0
-197	204	0
197	-205	0
-197	205	0
207	197	0
-207	-197	0
32	-207	0
-32	207	0
32	-208	0
-32	208	0
32	-221	0
-32	221	0
5	-212	0
-5	212	0
5	-213	0
-5	213	0
44	-110	0
-44	110	0
44	-111	0
-44	111	0
-349	-44	0
-346	-44	0
341	-344	0
-341	344	0
341	-345	0
-341	345	0
341	-346	0
-341	346	0
341	-358	0
-341	358	0
9	341	0
-9	-341	0
21	-349	0
-21	349	0
21	-350	0
-21	350	0
-263	-260	0
-261	-260	0
-265	-260	0
187	-264	0
-187	264	0
187	-265	0
-187	265	0
-195	-187	0
-196	-187	0
25	-194	0
-25	194	0
25	-195	0
-25	195	0
322	261	0
315	261	0
323	261	0
393	323	0
-393	-323	0
382	-393	0
-382	393	0
382	-394	0
-382	394	0
-391	-382	0
-392	-382	0
383	-388	0
-383	388	0
383	-389	0
-383	389	0
383	-392	0
-383	392	0
383	-400	0
-383	400	0
19	383	0
-19	-383	0
17	-390	0
-17	390	0
17	-391	0
-17	391	0
317	315	0
-317	-315	0
313	-316	0
-313	316	0
313	-317	0
-313	317	0
-380	-313	0
-381	-313	0
228	-377	0
-228	377	0
228	-378	0
-228	378	0
228	-381	0
-228	381	0
374	228	0
-374	-228	0
35	-373	0
-35	373	0
35	-374	0
-35	374	0
30	-379	0
-30	379	0
30	-380	0
-30	380	0
325	322	0
-325	-322	0
83	-324	0
-83	324	0
83	-325	0
-83	325	0
-311	-83	0
-312	-83	0
86	-91	0
-86	91	0
86	-92	0
-86	92	0
86	-158	0
-86	158	0
86	-312	0
-86	312	0
28	86	0
-28	-86	0
4	-310	0
-4	310	0
4	-311	0
-4	311	0
230	-262	0
-230	262	0
230	-263	0
-230	263	0
-235	-230	0
-232	-230	0
225	-231	0
-225	231	0
225	-232	0
-225	232	0
246	225	0
-246	-225	0
6	-246	0
-6	246	0
6	-247	0
-6	247	0
6	-251	0
-6	251	0
10	-235	0
-10	235	0
10	-236	0
-10	236	0
282	279	0
-282	-279	0
280	-282	0
-280	282	0
280	-283	0
-280	283	0
-363	-280	0
-364	-280	0
285	-288	0
-285	288	0
285	-289	0
-285	289	0
285	-304	0
-285	304	0
285	-364	0
-285	364	0
27	285	0
-27	-285	0
11	-362	0
-11	362	0
11	-363	0
-11	363	0
-173	-169	0
-319	-169	0
-269	-169	0
171	-269	0
-171	269	0
171	-270	0
-171	270	0
171	-333	0
-171	333	0
-396	-171	0
-387	-171	0
-389	-171	0
18	-386	0
-18	386	0
18	-387	0
-18	387	0
385	-396	0
-385	396	0
385	-397	0
-385	397	0
-394	-401	0
395	-401	0
394	-402	0
-395	-402	0
-402	385	0
-401	385	0
170	-319	0
-170	319	0
170	-320	0
-170	320	0
-328	-170	0
-367	-170	0
-377	-170	0
22	-367	0
-22	367	0
22	-368	0
-22	368	0
227	-328	0
-227	328	0
227	-329	0
-227	329	0
-316	-407	0
314	-407	0
316	-408	0
-314	-408	0
-408	227	0
-407	227	0
85	-172	0
-85	172	0
85	-173	0
-85	173	0
-89	-85	0
-167	-85	0
-91	-85	0
23	-167	0
-23	167	0
23	-168	0
-23	168	0
82	-89	0
-82	89	0
82	-90	0
-82	90	0
-324	-419	0
84	-419	0
324	-420	0
-84	-420	0
-420	82	0
-419	82	0
174	-256	0
-174	256	0
174	-257	0
-174	257	0
241	174	0
-241	-174	0
226	-241	0
-226	241	0
226	-242	0
-226	242	0
-254	-226	0
-238	-226	0
-231	-226	0
33	-238	0
-33	238	0
33	-239	0
-33	239	0
229	-254	0
-229	254	0
229	-255	0
-229	255	0
-262	-411	0
252	-411	0
262	-412	0
-252	-412	0
-412	229	0
-411	229	0
-65	-60	0
-122	-60	0
-117	-60	0
-127	-60	0
63	-127	0
-63	127	0
63	-128	0
-63	128	0
63	-199	0
-63	199	0
-203	-63	0
-215	-63	0
-205	-63	0
29	-215	0
-29	215	0
29	-216	0
-29	216	0
40	-202	0
-40	202	0
40	-203	0
-40	203	0
-45	-421	0
80	-421	0
45	-422	0
-80	-422	0
-422	40	0
-421	40	0
62	-117	0
-62	117	0
62	-118	0
-62	118	0
62	-120	0
-62	120	0
-276	-62	0
-298	-62	0
-278	-62	0
31	-298	0
-31	298	0
31	-299	0
-31	299	0
273	-275	0
-273	275	0
273	-276	0
-273	276	0
-339	-403	0
340	-403	0
339	-404	0
-340	-404	0
-404	273	0
-403	273	0
61	-122	0
-61	122	0
61	-123	0
-61	123	0
-342	-61	0
-352	-61	0
-344	-61	0
20	-352	0
-20	352	0
20	-353	0
-20	353	0
109	-342	0
-109	342	0
109	-343	0
-109	343	0
-111	-415	0
112	-415	0
111	-416	0
-112	-416	0
-416	109	0
-415	109	0
52	-64	0
-52	64	0
52	-65	0
-52	65	0
-286	-52	0
-308	-52	0
-288	-52	0
281	-286	0
-281	286	0
281	-287	0
-281	287	0
-283	-409	0
284	-409	0
283	-410	0
-284	-410	0
-410	281	0
-409	281	0
2	-302	0
-2	302	0
2	-303	0
-2	303	0
58	-178	0
-58	178	0
58	-179	0
-58	179	0
58	-224	0
-58	224	0
58	-291	0
-58	291	0
58	-301	0
-58	301	0
58	-355	0
-58	355	0
58	-366	0
-58	366	0
58	-384	0
-58	384	0
49	58	0
59	58	0
54	58	0
-57	-54	0
-202	-57	0
-201	-57	0
219	201	0
208	201	0
206	-219	0
-206	219	0
206	-220	0
-206	220	0
14	206	0
-14	-206	0
126	125	0
-126	-125	0
-128	-126	0
-129	-126	0
199	198	0
200	198	0
-343	-56	0
-356	-56	0
-345	-56	0
8	-356	0
-8	356	0
8	-357	0
-8	357	0
-95	-59	0
-87	-59	0
-96	-59	0
327	96	0
337	327	0
-397	-337	0
-399	-337	0
-400	-337	0
3	-398	0
-3	398	0
3	-399	0
-3	399	0
-333	-332	0
-334	-332	0
-267	-266	0
-268	-266	0
78	-258	0
-78	258	0
78	-259	0
-78	259	0
78	-268	0
-78	268	0
98	78	0
-98	-78	0
270	267	0
-270	-267	0
370	326	0
373	326	0
372	370	0
-372	-370	0
1	-371	0
-1	371	0
1	-372	0
-1	372	0
-320	-405	0
321	-405	0
320	-406	0
-321	-406	0
-406	318	0
-405	318	0
-88	-87	0
-90	-87	0
-156	-87	0
-92	-87	0
16	-156	0
-16	156	0
16	-157	0
-16	157	0
-172	-417	0
94	-417	0
172	-418	0
-94	-418	0
-418	88	0
-417	88	0
106	95	0
-106	-95	0
-108	-106	0
-255	-108	0
-248	-108	0
250	248	0
251	248	0
244	-249	0
-244	249	0
244	-250	0
-244	250	0
13	244	0
-13	-244	0
257	253	0
259	253	0
242	240	0
243	240	0
-190	-107	0
-192	-107	0
-193	-107	0
36	-191	0
-36	191	0
36	-192	0
-36	192	0
-47	-49	0
48	47	0
-48	-47	0
115	48	0
-275	-115	0
-292	-115	0
-277	-115	0
24	-292	0
-24	292	0
24	-293	0
-24	293	0
-120	-114	0
-121	-114	0
116	113	0
-116	-113	0
118	116	0
119	116	0
-287	-51	0
-302	-51	0
-289	-51	0
222	74	0
223	74	0
66	-132	0
-66	132	0
66	-133	0
-66	133	0
66	-135	0
-66	135	0
66	-223	0
-66	223	0
209	66	0
-209	-66	0
-347	-209	0
354	347	0
-354	-347	0
-358	-354	0
131	-136	0
-131	136	0
131	-137	0
-131	137	0
131	-140	0
-131	140	0
131	-148	0
-131	148	0
131	-222	0
-131	222	0
295	131	0
290	131	0
-294	-290	0
146	71	0
141	71	0
149	71	0
-142	72	0
-142	149	0
-142	146	0
146	73	0
143	73	0
149	73	0
144	-149	0
-144	149	0
144	-150	0
-144	150	0
152	144	0
-152	-144	0
134	-151	0
-134	151	0
134	-152	0
-134	152	0
-233	-134	0
247	233	0
97	-217	0
-97	217	0
97	-218	0
-97	218	0
97	-245	0
-97	245	0
224	97	0
-224	-97	0
-163	-141	0
-154	159	0
-160	153	0
-154	-163	0
-160	-163	0
-163	-143	0
99	-162	0
-99	162	0
99	-163	0
-99	163	0
-100	-99	0
176	100	0
-176	-100	0
-185	-176	0
-158	-153	0
130	-145	0
-130	145	0
130	-146	0
-130	146	0
221	130	0
210	130	0
70	-76	0
-70	76	0
70	-77	0
-70	77	0
-330	-70	0
331	330	0
-331	-330	0
-388	-331	0
-375	-79	0
-378	-79	0
365	375	0
-365	-375	0
-425	428	0
-428	425	0
-310	-165	-158	0
-423	157	-178	0
-168	-166	-158	0
426	39	-37	0
427	-39	37	0
-425	427	426	0
37	79	67	0
-38	37	39	0
-38	-37	-39	0
39	79	69	0
-68	67	69	0
-68	-67	-69	0
-303	-301	-75	0
-362	-306	-305	0
-309	-307	-305	0
307	306	305	0
309	306	305	0
307	362	305	0
309	362	305	0
413	264	-188	0
414	-264	188	0
-182	414	413	0
272	360	361	0
43	110	46	0
41	212	204	0
44	349	346	0
187	195	196	0
382	391	392	0
313	380	381	0
83	311	312	0
230	235	232	0
280	363	364	0
401	394	-395	0
402	-394	395	0
-385	402	401	0
407	316	-314	0
408	-316	314	0
-227	408	407	0
419	324	-84	0
420	-324	84	0
-82	420	419	0
411	262	-252	0
412	-262	252	0
-229	412	411	0
421	45	-80	0
422	-45	80	0
-40	422	421	0
403	339	-340	0
404	-339	340	0
-273	404	403	0
415	111	-112	0
416	-111	112	0
-109	416	415	0
409	283	-284	0
410	-283	284	0
-281	410	409	0
-56	-55	-54	0
57	55	54	0
57	56	54	0
-125	-198	-57	0
-201	-219	-208	0
126	128	129	0
-198	-199	-200	0
124	123	55	0
-124	-123	55	0
-124	123	-55	0
124	-123	-55	0
-327	-318	-96	0
-327	-329	-96	0
-327	-326	-96	0
332	266	327	0
-337	-266	-327	0
-337	-332	-327	0
332	333	334	0
266	267	268	0
-326	-370	-373	0
405	320	-321	0
406	-320	321	0
-318	406	405	0
417	172	-94	0
418	-172	94	0
-88	418	417	0
-107	-103	-106	0
108	103	106	0
108	107	106	0
-253	-240	-108	0
-248	-250	-251	0
-253	-257	-259	0
-240	-242	-243	0
105	180	103	0
-105	-180	103	0
-105	180	-103	0
105	-180	-103	0
-51	-50	-49	0
47	50	49	0
47	51	49	0
114	113	48	0
-115	-113	-48	0
-115	-114	-48	0
114	120	121	0
-116	-118	-119	0
93	64	50	0
-93	-64	50	0
-93	64	-50	0
93	-64	-50	0
-74	-222	-223	0
-350	-348	-209	0
-353	-351	-209	0
-357	-355	-354	0
358	355	354	0
358	357	354	0
-131	-295	-290	0
-293	-291	-290	0
294	291	290	0
294	293	290	0
-359	-296	-295	0
-299	-297	-295	0
297	296	295	0
299	296	295	0
297	359	295	0
299	359	295	0
-72	71	73	0
-72	-71	-73	0
-236	-234	-134	0
-239	-237	-134	0
249	245	233	0
-247	-245	-233	0
-247	-249	-233	0
-153	-159	-141	0
163	159	141	0
163	153	141	0
-164	-153	-159	0
-142	141	143	0
-142	-141	-143	0
-153	-161	-143	0
163	161	143	0
163	153	143	0
-194	-101	-99	0
-183	-102	-99	0
-191	-179	-176	0
185	179	176	0
185	191	176	0
-157	-178	-153	0
158	178	153	0
158	157	153	0
-310	-165	-159	0
-168	-166	-159	0
166	165	159	0
168	165	159	0
166	310	159	0
168	310	159	0
220	218	130	0
-213	-211	-210	0
-216	-214	-210	0
214	211	210	0
216	211	210	0
214	213	210	0
216	213	210	0
-390	-335	-70	0
-386	-336	-70	0
-398	-384	-331	0
388	384	331	0
388	398	331	0
-376	-379	-79	0
-366	-371	-365	0
-369	-368	-365	0
368	371	365	0
369	371	365	0
368	366	365	0
369	366	365	0
-168	-166	-157	-178	0
-423	-168	-310	-178	0
166	310	158	157	0
-310	-165	-157	-178	0
-423	-168	-165	-178	0
-423	166	-157	178	0
423	165	158	178	0
423	310	158	178	0
-423	168	310	178	0
166	165	158	157	0
168	165	158	157	0
168	310	158	157	0
300	304	301	75	0
300	304	303	75	0
104	189	184	186	0
260	263	261	265	0
-261	-322	-315	-323	0
169	173	319	269	0
171	396	387	389	0
170	328	367	377	0
85	89	167	91	0
226	254	238	231	0
63	203	215	205	0
62	276	298	278	0
61	342	352	344	0
52	286	308	288	0
-58	-49	-59	-54	0
201	202	198	57	0
201	202	125	57	0
56	343	356	345	0
59	95	87	96	0
326	329	318	96	0
337	397	399	400	0
248	255	240	108	0
248	255	253	108	0
107	190	192	193	0
115	275	292	277	0
51	287	302	289	0
347	351	348	209	0
347	353	348	209	0
347	351	350	209	0
347	353	350	209	0
-71	-146	-141	-149	0
-73	-146	-143	-149	0
233	237	234	134	0
233	239	234	134	0
233	237	236	134	0
233	239	236	134	0
100	102	101	99	0
100	183	101	99	0
100	102	194	99	0
100	183	194	99	0
-210	-221	-218	-130	0
-210	-221	-220	-130	0
330	336	335	70	0
330	386	335	70	0
330	336	390	70	0
330	386	390	70	0
378	375	379	79	0
378	375	376	79	0
423	310	165	158	-157	0
-423	168	-166	-165	-157	0
-423	168	-166	-310	165	0
423	166	158	157	178	0
423	168	158	157	178	0
-423	-168	-166	-310	-165	0
67	76	71	74	138	0
69	76	73	74	138	0
-53	-60	-256	-169	-175	0
-42	-279	-260	-43	-271	0
60	65	122	117	127	0
87	88	90	156	92	0
423	168	166	158	-157	424	0
